\Problem name: problem                                                          
\FICO Xpress v9.4.0, Hyper, written 16:28:58, Apr 15, 2025

Minimize
__OBJ___: v_0_1 + w_0_0 + w_0_1 + w_1_0 + w_1_1 + w_2_0 + w_2_1 + w_3_0 + w_3_1

Subject To
R1: [ X1_0^2 - 2 X1_0 * X1_1 + X2_0^2 - 2 X2_0 * X2_1 + X1_1^2 + X2_1^2
 - s_0_1^2 ] <= 0 
R2: - 1.2 X1_0 - X2_0 + [ X1_0^2 + X2_0^2 - t_0_0^2 ] <= -0.61 
R3: - 1.2 X1_1 - X2_1 + [ X1_1^2 + X2_1^2 - t_0_1^2 ] <= -0.61 
R4: - 1.4 X1_0 - 1.3 X2_0 + [ X1_0^2 + X2_0^2 - t_1_0^2 ] <= -0.9125 
R5: - 1.4 X1_1 - 1.3 X2_1 + [ X1_1^2 + X2_1^2 - t_1_1^2 ] <= -0.9125 
R6: - 1.5 X1_0 - 1.16 X2_0 + [ X1_0^2 + X2_0^2 - t_2_0^2 ] <= -0.8989 
R7: - 1.5 X1_1 - 1.16 X2_1 + [ X1_1^2 + X2_1^2 - t_2_1^2 ] <= -0.8989 
R8: - 1.9 X1_0 - 0.8 X2_0 + [ X1_0^2 + X2_0^2 - t_3_0^2 ] <= -1.0625 
R9: - 1.9 X1_1 - 0.8 X2_1 + [ X1_1^2 + X2_1^2 - t_3_1^2 ] <= -1.0625 
R10: t_0_1 + 1.0295630140986998 t_1_1 + 1.3528157661845792 t_2_1 + t_3_1
          - w_0_1 - 1.0295630140986998 w_1_1 - 1.3528157661845792 w_2_1 - w_3_1
          <= 0.36400549446402586 
R11: s_0_1 - v_0_1 <= 0.36400549446402586 

Bounds

End
